p wcnf 144 72 73 
1 -55 -133 0 
1 15 -110 0 
1 83 -114 0 
1 125 -33 0 
1 77 -86 0 
1 -6 -124 0 
1 72 48 0 
1 31 -75 0 
1 86 -84 0 
1 72 20 0 
1 69 80 0 
1 59 82 0 
1 -72 -112 0 
1 -17 -89 0 
1 -96 -27 0 
1 45 14 0 
1 -95 -65 0 
1 -72 -6 0 
1 -130 -74 0 
1 -50 141 0 
1 -119 144 0 
1 -37 3 0 
1 18 33 0 
1 -92 -107 0 
1 100 6 0 
1 -125 -59 0 
1 6 23 0 
1 -81 100 0 
1 143 -119 0 
1 -21 86 0 
1 13 -20 0 
1 -138 59 0 
1 130 -68 0 
1 -48 105 0 
1 -121 102 0 
1 -60 -16 0 
1 9 -110 0 
1 -114 9 0 
1 17 31 0 
1 -62 77 0 
1 97 -1 0 
1 88 -8 0 
1 -85 -55 0 
1 -11 132 0 
1 -22 59 0 
1 -135 -36 0 
1 2 13 0 
1 -100 -120 0 
1 130 -31 0 
1 -12 -67 0 
1 -42 41 0 
1 -40 -101 0 
1 -39 -101 0 
1 109 -26 0 
1 34 2 0 
1 -132 64 0 
1 3 114 0 
1 79 -28 0 
1 -56 82 0 
1 18 -8 0 
1 100 63 0 
1 61 -9 0 
1 92 54 0 
1 43 -28 0 
1 -40 63 0 
1 44 49 0 
1 -42 -65 0 
1 -41 139 0 
1 -110 -101 0 
1 122 77 0 
1 100 117 0 
1 85 73 0 
